units real
atom_style full

dimension 3
boundary p p p

read_data bmim.lmp

thermo 100

pair_style lj/cut 10.0
pair_modify mix geometric
#               sig      eps
pair_coeff 1 1  0.1700   3.2500
pair_coeff 2 2  0.1700   3.2500
pair_coeff 3 3  0.1700   3.2500
pair_coeff 4 4  0.1700   3.2500
pair_coeff 5 5  0.1700   3.2500

bond_style harmonic
#            k          r_eq
bond_coeff 1 339.9857   1.0800
bond_coeff 2 339.9857   1.0800
bond_coeff 3 339.9857   1.0800
bond_coeff 4 339.9857   1.0800
bond_coeff 5 339.9857   1.0800
bond_coeff 6 339.9857   1.0800
bond_coeff 7 339.9857   1.0800
bond_coeff 8 339.9857   1.0800
bond_coeff 9 339.9857   1.0800

angle_style harmonic
#              k       theta_eq
angle_coeff 1  70.0048 108.0000
angle_coeff 2  70.0048 108.0000
angle_coeff 3  70.0048 108.0000
angle_coeff 4  70.0048 108.0000
angle_coeff 5  70.0048 108.0000
angle_coeff 6  70.0048 108.0000
angle_coeff 7  70.0048 108.0000
angle_coeff 8  70.0048 108.0000
angle_coeff 9  70.0048 108.0000
angle_coeff 10 70.0048 108.0000
angle_coeff 11 70.0048 108.0000
angle_coeff 12 70.0048 108.0000
angle_coeff 13 70.0048 108.0000
angle_coeff 14 70.0048 108.0000
angle_coeff 15 70.0048 108.0000
angle_coeff 16 70.0048 108.0000
angle_coeff 17 70.0048 108.0000

dihedral_style opls
#                  k1       k2       k3       k4
dihedral_coeff 1   0.0000   4.6511   0.0000   0.0000
dihedral_coeff 2   0.0000   4.6511   0.0000   0.0000
dihedral_coeff 3   0.0000   4.6511   0.0000   0.0000
dihedral_coeff 4   0.0000   4.6511   0.0000   0.0000
dihedral_coeff 5   0.0000   4.6511   0.0000   0.0000
dihedral_coeff 6   0.0000   4.6511   0.0000   0.0000
dihedral_coeff 7   0.0000   4.6511   0.0000   0.0000
dihedral_coeff 8   0.0000   4.6511   0.0000   0.0000
dihedral_coeff 9   0.0000   4.6511   0.0000   0.0000
dihedral_coeff 10  0.0000   4.6511   0.0000   0.0000
dihedral_coeff 11  0.0000   4.6511   0.0000   0.0000
dihedral_coeff 12  0.0000   4.6511   0.0000   0.0000
dihedral_coeff 13  0.0000   4.6511   0.0000   0.0000
dihedral_coeff 14  0.0000   4.6511   0.0000   0.0000
dihedral_coeff 15  0.0000   4.6511   0.0000   0.0000
dihedral_coeff 16  0.0000   4.6511   0.0000   0.0000
dihedral_coeff 17  0.0000   4.6511   0.0000   0.0000
dihedral_coeff 18  0.0000   4.6511   0.0000   0.0000

velocity all create 300 43254392
fix 1 all nvt temp 300 300 10.0
run_style respa 3 2 2 bond 1 angle 2 dihedral 2 pair 3 kspace 3

dump data all custom 10 bmim.lammpstrj id type x y z
timestep 1.0
run 100000